NAME : random_4
COMMENT : 46 random nodes
TYPE : TSP
DIMENSION : 46
EDGE_WEIGHT_TYPE : EUC_2D
NODE_COORD_SECTION
1 -3657 83
2 -4939 1237
3 7398 -2241
4 1626 -1424
5 -2404 4819
6 -644 -5643
7 -6249 3056
8 -654 2425
9 5682 -3760
10 -880 1652
11 4487 -3758
12 5405 -2061
13 -3211 -2254
14 -217 5972
15 7302 235
16 2970 3526
17 4604 -1596
18 -121 2027
19 1051 -4869
20 -1928 -5393
21 3325 6173
22 3015 -1135
23 -2757 -4369
24 4026 -2309
25 -781 703
26 -4903 -6089
27 -97 -1131
28 -2100 -2867
29 4770 -5727
30 -209 -615
31 2209 2432
32 -2440 -4702
33 -5819 -2436
34 1715 5790
35 7080 -5362
36 598 212
37 5076 3691
38 152 -3927
39 -1635 -862
40 3973 -226
41 6960 2208
42 764 -2395
43 6169 3727
44 -465 1165
45 5490 -460
46 -2212 -5202
EOF